%mem=4GB
%nprocshared=6
%chk=B3LYP-es1.chk
#P 6-31+G(d)   opt  td(root=1)   B3LYP 

 TEST 

0 1
6 1.485245 -2.456133 0.026753
6 0.722566 -1.250537 0.013616
6 -0.721214 -1.251116 0.013130
6 -1.483120 -2.457057 0.025755
6 1.418307 0.000737 0.000477
6 -1.418307 -0.000737 -0.000477
6 -0.722566 1.250537 -0.013616
6 0.721214 1.251116 -0.013130
6 -1.485245 2.456133 -0.026753
6 -2.867492 2.435986 -0.027013
6 -3.558467 1.218809 -0.014247
6 -2.847815 -0.001418 -0.000957
6 -3.558466 -1.221867 0.011854
6 -2.865331 -2.438228 0.025089
1 -3.446944 -3.351050 0.034632
1 -3.450680 3.347946 -0.036946
6 2.867492 -2.435986 0.027013
6 3.558467 -1.218809 0.014247
6 2.847815 0.001418 0.000957
1 3.450680 -3.347946 0.036946
6 3.558466 1.221867 -0.011854
6 2.865331 2.438228 -0.025089
6 1.483120 2.457057 -0.025755
1 3.446944 3.351050 -0.034632
1 -0.977836 3.410247 -0.036751
1 0.975196 3.410894 -0.036099
1 0.977836 -3.410247 0.036751
1 -0.975196 -3.410894 0.036099
6 -5.029247 1.242155 -0.014985
8 -5.688736 2.298015 -0.026455
6 -5.030664 -1.251696 0.011652
8 -5.674216 -2.318477 0.022966
6 5.029247 -1.242155 0.014985
8 5.688736 -2.298015 0.026455
6 5.030664 1.251696 -0.011652
8 5.674216 2.318477 -0.022966
7 -5.673067 -0.003022 -0.001856
7 5.673067 0.003022 0.001856
6 -7.155168 0.018159 -0.002497
1 -7.514027 0.534095 -0.895729
1 -7.482397 -1.019603 0.008395
1 -7.514542 0.552875 0.879416
6 7.155168 -0.018159 0.002497
1 7.482397 1.019603 -0.008395
1 7.514027 -0.534095 0.895729
1 7.514542 -0.552875 -0.879416


--link1--
%mem=4GB
%nprocshared=6
%chk=B3LYP-es1.chk
#P chkbasis geom=allcheck guess=read     td(root=1)  freq B3LYP 

 